c Random CNF formula
p cnf 20 40
-10 19 4 0
-1 -7 -9 0
-18 8 -9 0
-6 18 5 0
3 -19 6 0
8 16 10 0
6 -20 -18 0
19 -20 15 0
7 14 6 0
-8 4 18 0
3 -6 -2 0
-6 1 -14 0
15 -7 -16 0
13 1 14 0
1 -7 -15 0
20 -10 12 0
-3 6 -20 0
-9 13 19 0
-6 7 -11 0
-3 9 -12 0
3 -6 19 0
6 -16 18 0
2 -15 8 0
-6 -8 -13 0
13 14 1 0
3 20 14 0
10 14 6 0
5 3 -2 0
-11 14 1 0
-1 -2 14 0
1 -17 20 0
-8 3 6 0
6 3 15 0
-18 7 10 0
-13 -12 -11 0
13 6 1 0
-1 7 -17 0
-8 4 -5 0
-3 -8 -7 0
14 8 20 0
